NAME: random-42-10044
TYPE: TSP
COMMENT: size=42 seed=10044
DIMENSION: 86
EDGE_WEIGHT_TYPE: EUC_2D
NODE_COORD_SECTION
+0 508 269
-0 508 269
+1 823 215
-1 552 386
+2 778 160
-2 763 861
+3 786 339
-3 636 92
+4 961 257
-4 363 791
+5 461 77
-5 191 693
+6 434 128
-6 175 383
+7 738 566
-7 747 559
+8 36 776
-8 369 340
+9 38 297
-9 885 281
+10 341 972
-10 366 582
+11 19 470
-11 464 409
+12 403 907
-12 438 426
+13 116 169
-13 16 776
+14 214 272
-14 916 356
+15 126 955
-15 461 68
+16 121 765
-16 557 535
+17 239 272
-17 349 38
+18 339 406
-18 20 208
+19 975 143
-19 444 891
+20 902 563
-20 803 686
+21 908 599
-21 702 734
+22 258 284
-22 998 240
+23 545 523
-23 849 345
+24 218 384
-24 137 52
+25 832 215
-25 376 655
+26 707 325
-26 615 311
+27 840 894
-27 831 959
+28 990 638
-28 15 433
+29 460 564
-29 426 558
+30 729 729
-30 726 185
+31 337 129
-31 232 697
+32 312 45
-32 972 857
+33 285 67
-33 623 706
+34 287 121
-34 165 320
+35 191 952
-35 977 772
+36 332 825
-36 832 445
+37 536 82
-37 748 821
+38 725 154
-38 694 772
+39 732 413
-39 599 842
+40 29 369
-40 2 353
+41 77 904
-41 579 514
+42 252 209
-42 845 271
PRECEDENCE_SECTION
+0 -0
+1 -1
+2 -2
+3 -3
+4 -4
+5 -5
+6 -6
+7 -7
+8 -8
+9 -9
+10 -10
+11 -11
+12 -12
+13 -13
+14 -14
+15 -15
+16 -16
+17 -17
+18 -18
+19 -19
+20 -20
+21 -21
+22 -22
+23 -23
+24 -24
+25 -25
+26 -26
+27 -27
+28 -28
+29 -29
+30 -30
+31 -31
+32 -32
+33 -33
+34 -34
+35 -35
+36 -36
+37 -37
+38 -38
+39 -39
+40 -40
+41 -41
+42 -42
EOF
